Problem:    
Rows:       1
Columns:    392 (392 integer, 392 binary)
Non-zeros:  392
Status:     INTEGER OPTIMAL
Objective:  score = 126 (MAXimum)

   No.   Row name        Activity     Lower bound   Upper bound
------ ------------    ------------- ------------- -------------
     1 length                      4                           4 

   No. Column name       Activity     Lower bound   Upper bound
------ ------------    ------------- ------------- -------------
     1 c0           *              0             0             1 
     2 c1           *              0             0             1 
     3 c2           *              0             0             1 
     4 c3           *              0             0             1 
     5 c4           *              0             0             1 
     6 c5           *              0             0             1 
     7 c6           *              0             0             1 
     8 c7           *              0             0             1 
     9 c8           *              0             0             1 
    10 c9           *              0             0             1 
    11 c10          *              0             0             1 
    12 c11          *              0             0             1 
    13 c12          *              0             0             1 
    14 c13          *              0             0             1 
    15 c14          *              0             0             1 
    16 c15          *              0             0             1 
    17 c16          *              0             0             1 
    18 c17          *              0             0             1 
    19 c18          *              0             0             1 
    20 c19          *              0             0             1 
    21 c20          *              0             0             1 
    22 c21          *              0             0             1 
    23 c22          *              0             0             1 
    24 c23          *              0             0             1 
    25 c24          *              0             0             1 
    26 c25          *              0             0             1 
    27 c26          *              0             0             1 
    28 c27          *              0             0             1 
    29 c28          *              1             0             1 
    30 c29          *              0             0             1 
    31 c30          *              1             0             1 
    32 c31          *              0             0             1 
    33 c32          *              1             0             1 
    34 c33          *              0             0             1 
    35 c34          *              0             0             1 
    36 c35          *              0             0             1 
    37 c36          *              0             0             1 
    38 c37          *              0             0             1 
    39 c38          *              0             0             1 
    40 c39          *              0             0             1 
    41 c40          *              0             0             1 
    42 c41          *              0             0             1 
    43 c42          *              0             0             1 
    44 c43          *              0             0             1 
    45 c44          *              0             0             1 
    46 c45          *              0             0             1 
    47 c46          *              0             0             1 
    48 c47          *              0             0             1 
    49 c48          *              0             0             1 
    50 c49          *              0             0             1 
    51 c50          *              0             0             1 
    52 c51          *              0             0             1 
    53 c52          *              0             0             1 
    54 c53          *              0             0             1 
    55 c54          *              0             0             1 
    56 c55          *              0             0             1 
    57 c56          *              0             0             1 
    58 c57          *              0             0             1 
    59 c58          *              0             0             1 
    60 c59          *              0             0             1 
    61 c60          *              0             0             1 
    62 c61          *              0             0             1 
    63 c62          *              0             0             1 
    64 c63          *              0             0             1 
    65 c64          *              0             0             1 
    66 c65          *              0             0             1 
    67 c66          *              0             0             1 
    68 c67          *              0             0             1 
    69 c68          *              0             0             1 
    70 c69          *              0             0             1 
    71 c70          *              0             0             1 
    72 c71          *              0             0             1 
    73 c72          *              0             0             1 
    74 c73          *              0             0             1 
    75 c74          *              0             0             1 
    76 c75          *              0             0             1 
    77 c76          *              0             0             1 
    78 c77          *              0             0             1 
    79 c78          *              0             0             1 
    80 c79          *              0             0             1 
    81 c80          *              0             0             1 
    82 c81          *              0             0             1 
    83 c82          *              0             0             1 
    84 c83          *              0             0             1 
    85 c84          *              0             0             1 
    86 c85          *              0             0             1 
    87 c86          *              0             0             1 
    88 c87          *              0             0             1 
    89 c88          *              0             0             1 
    90 c89          *              0             0             1 
    91 c90          *              0             0             1 
    92 c91          *              1             0             1 
    93 c92          *              0             0             1 
    94 c93          *              0             0             1 
    95 c94          *              0             0             1 
    96 c95          *              0             0             1 
    97 c96          *              0             0             1 
    98 c97          *              0             0             1 
    99 c98          *              0             0             1 
   100 c99          *              0             0             1 
   101 c100         *              0             0             1 
   102 c101         *              0             0             1 
   103 c102         *              0             0             1 
   104 c103         *              0             0             1 
   105 c104         *              0             0             1 
   106 c105         *              0             0             1 
   107 c106         *              0             0             1 
   108 c107         *              0             0             1 
   109 c108         *              0             0             1 
   110 c109         *              0             0             1 
   111 c110         *              0             0             1 
   112 c111         *              0             0             1 
   113 c112         *              0             0             1 
   114 c113         *              0             0             1 
   115 c114         *              0             0             1 
   116 c115         *              0             0             1 
   117 c116         *              0             0             1 
   118 c117         *              0             0             1 
   119 c118         *              0             0             1 
   120 c119         *              0             0             1 
   121 c120         *              0             0             1 
   122 c121         *              0             0             1 
   123 c122         *              0             0             1 
   124 c123         *              0             0             1 
   125 c124         *              0             0             1 
   126 c125         *              0             0             1 
   127 c126         *              0             0             1 
   128 c127         *              0             0             1 
   129 c128         *              0             0             1 
   130 c129         *              0             0             1 
   131 c130         *              0             0             1 
   132 c131         *              0             0             1 
   133 c132         *              0             0             1 
   134 c133         *              0             0             1 
   135 c134         *              0             0             1 
   136 c135         *              0             0             1 
   137 c136         *              0             0             1 
   138 c137         *              0             0             1 
   139 c138         *              0             0             1 
   140 c139         *              0             0             1 
   141 c140         *              0             0             1 
   142 c141         *              0             0             1 
   143 c142         *              0             0             1 
   144 c143         *              0             0             1 
   145 c144         *              0             0             1 
   146 c145         *              0             0             1 
   147 c146         *              0             0             1 
   148 c147         *              0             0             1 
   149 c148         *              0             0             1 
   150 c149         *              0             0             1 
   151 c150         *              0             0             1 
   152 c151         *              0             0             1 
   153 c152         *              0             0             1 
   154 c153         *              0             0             1 
   155 c154         *              0             0             1 
   156 c155         *              0             0             1 
   157 c156         *              0             0             1 
   158 c157         *              0             0             1 
   159 c158         *              0             0             1 
   160 c159         *              0             0             1 
   161 c160         *              0             0             1 
   162 c161         *              0             0             1 
   163 c162         *              0             0             1 
   164 c163         *              0             0             1 
   165 c164         *              0             0             1 
   166 c165         *              0             0             1 
   167 c166         *              0             0             1 
   168 c167         *              0             0             1 
   169 c168         *              0             0             1 
   170 c169         *              0             0             1 
   171 c170         *              0             0             1 
   172 c171         *              0             0             1 
   173 c172         *              0             0             1 
   174 c173         *              0             0             1 
   175 c174         *              0             0             1 
   176 c175         *              0             0             1 
   177 c176         *              0             0             1 
   178 c177         *              0             0             1 
   179 c178         *              0             0             1 
   180 c179         *              0             0             1 
   181 c180         *              0             0             1 
   182 c181         *              0             0             1 
   183 c182         *              0             0             1 
   184 c183         *              0             0             1 
   185 c184         *              0             0             1 
   186 c185         *              0             0             1 
   187 c186         *              0             0             1 
   188 c187         *              0             0             1 
   189 c188         *              0             0             1 
   190 c189         *              0             0             1 
   191 c190         *              0             0             1 
   192 c191         *              0             0             1 
   193 c192         *              0             0             1 
   194 c193         *              0             0             1 
   195 c194         *              0             0             1 
   196 c195         *              0             0             1 
   197 c196         *              0             0             1 
   198 c197         *              0             0             1 
   199 c198         *              0             0             1 
   200 c199         *              0             0             1 
   201 c200         *              0             0             1 
   202 c201         *              0             0             1 
   203 c202         *              0             0             1 
   204 c203         *              0             0             1 
   205 c204         *              0             0             1 
   206 c205         *              0             0             1 
   207 c206         *              0             0             1 
   208 c207         *              0             0             1 
   209 c208         *              0             0             1 
   210 c209         *              0             0             1 
   211 c210         *              0             0             1 
   212 c211         *              0             0             1 
   213 c212         *              0             0             1 
   214 c213         *              0             0             1 
   215 c214         *              0             0             1 
   216 c215         *              0             0             1 
   217 c216         *              0             0             1 
   218 c217         *              0             0             1 
   219 c218         *              0             0             1 
   220 c219         *              0             0             1 
   221 c220         *              0             0             1 
   222 c221         *              0             0             1 
   223 c222         *              0             0             1 
   224 c223         *              0             0             1 
   225 c224         *              0             0             1 
   226 c225         *              0             0             1 
   227 c226         *              0             0             1 
   228 c227         *              0             0             1 
   229 c228         *              0             0             1 
   230 c229         *              0             0             1 
   231 c230         *              0             0             1 
   232 c231         *              0             0             1 
   233 c232         *              0             0             1 
   234 c233         *              0             0             1 
   235 c234         *              0             0             1 
   236 c235         *              0             0             1 
   237 c236         *              0             0             1 
   238 c237         *              0             0             1 
   239 c238         *              0             0             1 
   240 c239         *              0             0             1 
   241 c240         *              0             0             1 
   242 c241         *              0             0             1 
   243 c242         *              0             0             1 
   244 c243         *              0             0             1 
   245 c244         *              0             0             1 
   246 c245         *              0             0             1 
   247 c246         *              0             0             1 
   248 c247         *              0             0             1 
   249 c248         *              0             0             1 
   250 c249         *              0             0             1 
   251 c250         *              0             0             1 
   252 c251         *              0             0             1 
   253 c252         *              0             0             1 
   254 c253         *              0             0             1 
   255 c254         *              0             0             1 
   256 c255         *              0             0             1 
   257 c256         *              0             0             1 
   258 c257         *              0             0             1 
   259 c258         *              0             0             1 
   260 c259         *              0             0             1 
   261 c260         *              0             0             1 
   262 c261         *              0             0             1 
   263 c262         *              0             0             1 
   264 c263         *              0             0             1 
   265 c264         *              0             0             1 
   266 c265         *              0             0             1 
   267 c266         *              0             0             1 
   268 c267         *              0             0             1 
   269 c268         *              0             0             1 
   270 c269         *              0             0             1 
   271 c270         *              0             0             1 
   272 c271         *              0             0             1 
   273 c272         *              0             0             1 
   274 c273         *              0             0             1 
   275 c274         *              0             0             1 
   276 c275         *              0             0             1 
   277 c276         *              0             0             1 
   278 c277         *              0             0             1 
   279 c278         *              0             0             1 
   280 c279         *              0             0             1 
   281 c280         *              0             0             1 
   282 c281         *              0             0             1 
   283 c282         *              0             0             1 
   284 c283         *              0             0             1 
   285 c284         *              0             0             1 
   286 c285         *              0             0             1 
   287 c286         *              0             0             1 
   288 c287         *              0             0             1 
   289 c288         *              0             0             1 
   290 c289         *              0             0             1 
   291 c290         *              0             0             1 
   292 c291         *              0             0             1 
   293 c292         *              0             0             1 
   294 c293         *              0             0             1 
   295 c294         *              0             0             1 
   296 c295         *              0             0             1 
   297 c296         *              0             0             1 
   298 c297         *              0             0             1 
   299 c298         *              0             0             1 
   300 c299         *              0             0             1 
   301 c300         *              0             0             1 
   302 c301         *              0             0             1 
   303 c302         *              0             0             1 
   304 c303         *              0             0             1 
   305 c304         *              0             0             1 
   306 c305         *              0             0             1 
   307 c306         *              0             0             1 
   308 c307         *              0             0             1 
   309 c308         *              0             0             1 
   310 c309         *              0             0             1 
   311 c310         *              0             0             1 
   312 c311         *              0             0             1 
   313 c312         *              0             0             1 
   314 c313         *              0             0             1 
   315 c314         *              0             0             1 
   316 c315         *              0             0             1 
   317 c316         *              0             0             1 
   318 c317         *              0             0             1 
   319 c318         *              0             0             1 
   320 c319         *              0             0             1 
   321 c320         *              0             0             1 
   322 c321         *              0             0             1 
   323 c322         *              0             0             1 
   324 c323         *              0             0             1 
   325 c324         *              0             0             1 
   326 c325         *              0             0             1 
   327 c326         *              0             0             1 
   328 c327         *              0             0             1 
   329 c328         *              0             0             1 
   330 c329         *              0             0             1 
   331 c330         *              0             0             1 
   332 c331         *              0             0             1 
   333 c332         *              0             0             1 
   334 c333         *              0             0             1 
   335 c334         *              0             0             1 
   336 c335         *              0             0             1 
   337 c336         *              0             0             1 
   338 c337         *              0             0             1 
   339 c338         *              0             0             1 
   340 c339         *              0             0             1 
   341 c340         *              0             0             1 
   342 c341         *              0             0             1 
   343 c342         *              0             0             1 
   344 c343         *              0             0             1 
   345 c344         *              0             0             1 
   346 c345         *              0             0             1 
   347 c346         *              0             0             1 
   348 c347         *              0             0             1 
   349 c348         *              0             0             1 
   350 c349         *              0             0             1 
   351 c350         *              0             0             1 
   352 c351         *              0             0             1 
   353 c352         *              0             0             1 
   354 c353         *              0             0             1 
   355 c354         *              0             0             1 
   356 c355         *              0             0             1 
   357 c356         *              0             0             1 
   358 c357         *              0             0             1 
   359 c358         *              0             0             1 
   360 c359         *              0             0             1 
   361 c360         *              0             0             1 
   362 c361         *              0             0             1 
   363 c362         *              0             0             1 
   364 c363         *              0             0             1 
   365 c364         *              0             0             1 
   366 c365         *              0             0             1 
   367 c366         *              0             0             1 
   368 c367         *              0             0             1 
   369 c368         *              0             0             1 
   370 c369         *              0             0             1 
   371 c370         *              0             0             1 
   372 c371         *              0             0             1 
   373 c372         *              0             0             1 
   374 c373         *              0             0             1 
   375 c374         *              0             0             1 
   376 c375         *              0             0             1 
   377 c376         *              0             0             1 
   378 c377         *              0             0             1 
   379 c378         *              0             0             1 
   380 c379         *              0             0             1 
   381 c380         *              0             0             1 
   382 c381         *              0             0             1 
   383 c382         *              0             0             1 
   384 c383         *              0             0             1 
   385 c384         *              0             0             1 
   386 c385         *              0             0             1 
   387 c386         *              0             0             1 
   388 c387         *              0             0             1 
   389 c388         *              0             0             1 
   390 c389         *              0             0             1 
   391 c390         *              0             0             1 
   392 c391         *              0             0             1 

Integer feasibility conditions:

KKT.PE: max.abs.err = 0.00e+00 on row 0
        max.rel.err = 0.00e+00 on row 0
        High quality

KKT.PB: max.abs.err = 0.00e+00 on row 0
        max.rel.err = 0.00e+00 on row 0
        High quality

End of output
